33D32945 STP File, STP Format Version 1.0

SECTION Comments
Name "edge_n12_d2_s9"
Problem "Euclidean Steiner Tree Problem"
Remark "Generated with STPGenerator. 2 dimensions."
END

SECTION Graph
Nodes 12
END

SECTION Coordinates
DD 0 0.2069654480 0.2069654480
DD 1 0.6995153961 0.6995153961
DD 2 0.2034307295 0.2034307295
DD 3 0.3588790108 0.3588790108
DD 4 0.8845313130 0.8845313130
DD 5 0.4632373589 0.4632373589
DD 6 0.7227528005 0.7227528005
DD 7 0.6292115332 0.6292115332
DD 8 0.7207948913 0.7207948913
DD 9 0.7304651908 0.7304651908
DD 10 0.0540748500 0.0540748500
DD 11 0.9231773037 0.9231773037
END
